(set-logic QF_S)
(declare-fun var0 () String)
(declare-fun var1 () String)
(declare-fun var2 () String)
(declare-fun var3 () Int)
(declare-fun var4 () String)
(declare-fun var5 () Int)
(declare-fun var6 () Int)
(declare-fun var7 () Int)
(assert (not false))
(assert (> (str.to.int var0) (str.indexof var1 var2 var3)))
(assert (str.in.re (str.at (str.at var4 98) (str.to.int var0)) (re.inter re.allchar re.allchar)))
(assert (str.contains (str.substr var4 var5 var6) (str.substr var1 167 var7)))
(check-sat)